182 5
10 10 10 10 10 

0 0 0 0 0 0 1 2 
0 0 0 0 0 0 3 3 6 12 
10 0 1 0 0 0 2 8 4 
3 0 3 0 0 0 2 11 5 
5 0 3 0 0 0 1 7 
6 0 5 0 0 0 1 7 
2 0 2 0 0 0 1 9 
9 0 2 0 0 0 1 10 
7 0 3 0 0 0 1 13 
8 0 2 0 0 0 1 13 
10 0 3 0 0 0 1 13 
5 0 1 0 0 0 1 13 
0 0 0 0 0 0 2 14 36 
0 0 0 0 0 0 1 15 
6 0 0 1 1 0 2 18 16 
9 0 0 1 4 0 1 17 
6 0 0 4 2 0 1 19 
5 0 0 2 4 0 1 19 
4 0 0 6 2 0 2 21 20 
4 0 0 1 1 0 3 31 27 22 
7 0 0 1 1 0 3 27 26 23 
3 0 0 4 6 0 2 26 23 
3 0 0 5 2 0 2 25 24 
1 0 0 2 2 0 5 34 33 30 28 132 
8 0 0 3 2 0 4 34 33 29 28 
10 0 0 1 4 0 4 33 30 29 28 
3 0 0 3 2 0 2 33 32 
3 0 0 2 4 0 1 32 
7 0 0 2 4 0 1 32 
1 0 0 2 2 0 1 32 
7 0 0 2 2 0 1 34 
6 0 0 3 2 0 1 35 
6 0 0 1 2 0 1 35 
9 0 0 4 1 0 1 35 
0 0 0 0 0 0 1 72 
0 0 0 0 0 0 5 37 41 44 45 46 
2 0 0 0 0 1 1 38 
6 0 0 0 0 3 1 39 
5 0 0 0 0 3 2 43 40 
9 0 0 0 0 4 1 42 
8 0 0 0 0 2 1 42 
1 0 0 0 0 2 1 47 
1 0 0 0 0 2 2 47 139 
5 0 0 0 0 5 1 47 
3 0 0 0 0 1 1 47 
1 0 0 0 0 2 1 47 
0 0 0 0 0 0 2 48 60 
0 0 0 0 0 0 3 49 50 51 
5 0 0 0 0 1 3 58 54 52 
8 0 0 0 0 2 2 58 52 
3 0 0 0 0 4 1 52 
9 0 0 0 0 2 2 56 53 
6 0 0 0 0 4 1 55 
8 0 0 0 0 3 1 55 
9 0 0 0 0 3 2 57 180 
8 0 0 0 0 2 1 57 
10 0 0 0 0 2 1 59 
7 0 0 0 0 2 1 59 
0 0 0 0 0 0 1 72 
0 0 0 0 0 0 2 61 63 
2 1 0 0 0 0 1 62 
6 2 0 0 0 0 4 68 66 65 64 
2 4 0 0 0 0 3 68 65 64 
5 1 0 0 0 0 2 69 67 
5 4 0 0 0 0 2 69 67 
9 1 0 0 0 0 2 69 67 
6 3 0 0 0 0 1 70 
10 3 0 0 0 0 2 69 144 
2 4 0 0 0 0 1 71 
7 2 0 0 0 0 1 71 
0 0 0 0 0 0 1 72 
0 0 0 0 0 0 4 73 85 97 109 
0 0 0 0 0 0 5 74 76 79 82 83 
7 0 1 0 0 0 1 75 
10 0 3 0 0 0 2 81 77 
1 0 1 0 0 0 1 77 
10 0 2 0 0 0 1 78 
5 0 3 0 0 0 1 80 
6 0 4 0 0 0 1 81 
5 0 1 0 0 0 2 84 143 
3 0 4 0 0 0 1 84 
9 0 4 0 0 0 1 84 
7 0 2 0 0 0 1 84 
0 0 0 0 0 0 1 121 
0 0 0 0 0 0 1 86 
4 1 0 0 0 0 3 89 88 87 
5 1 0 0 0 0 4 95 94 92 90 
3 2 0 0 0 0 2 95 90 
7 2 0 0 0 0 3 94 90 118 
9 6 0 0 0 0 1 91 
7 1 0 0 0 0 1 93 
8 3 0 0 0 0 1 93 
3 3 0 0 0 0 1 96 
10 2 0 0 0 0 1 96 
1 4 0 0 0 0 1 96 
0 0 0 0 0 0 1 121 
0 0 0 0 0 0 2 98 100 
2 0 0 1 0 0 3 104 103 99 
6 0 0 2 0 0 3 107 105 101 
6 0 0 4 0 0 2 103 101 
8 0 0 2 0 0 1 102 
5 0 0 4 0 0 1 106 
7 0 0 3 0 0 1 105 
7 0 0 4 0 0 2 105 110 
8 0 0 2 0 0 1 108 
4 0 0 1 0 0 1 108 
1 0 0 2 0 0 1 108 
0 0 0 0 0 0 1 121 
0 0 0 0 0 0 2 110 119 
2 0 0 0 1 0 3 118 117 111 
9 0 0 0 2 0 1 112 
5 0 0 0 3 0 3 116 115 113 
8 0 0 0 1 0 1 114 
7 0 0 0 3 0 1 120 
5 0 0 0 3 0 1 120 
3 0 0 0 3 0 1 120 
4 0 0 0 2 0 2 120 177 
5 0 0 0 2 0 1 120 
10 0 0 0 5 0 1 120 
0 0 0 0 0 0 1 121 
0 0 0 0 0 0 5 122 134 146 158 170 
0 0 0 0 0 0 4 123 126 131 132 
7 0 0 1 0 0 1 124 
10 0 0 1 0 0 2 129 125 
8 0 0 3 0 0 2 130 127 
5 0 0 4 0 0 2 129 127 
8 0 0 2 0 0 1 128 
8 0 0 4 0 0 2 133 173 
6 0 0 3 0 0 1 133 
8 0 0 3 0 0 1 133 
6 0 0 2 0 0 1 133 
3 0 0 2 0 0 1 133 
0 0 0 0 0 0 1 182 
0 0 0 0 0 0 4 135 136 137 140 
10 0 0 1 0 0 2 144 138 
1 0 0 3 0 0 2 144 138 
4 0 0 2 0 0 2 144 139 
1 0 0 2 0 0 1 139 
5 0 0 3 0 0 2 143 141 
6 0 0 1 0 0 2 143 141 
9 0 0 3 0 0 1 142 
5 0 0 4 0 0 1 145 
4 0 0 1 0 0 1 145 
10 0 0 5 0 0 1 145 
0 0 0 0 0 0 1 182 
0 0 0 0 0 0 3 147 148 150 
4 0 0 1 0 0 2 156 149 
8 0 0 5 0 0 2 153 149 
5 0 0 2 0 0 2 152 151 
3 0 0 3 0 0 2 153 151 
3 0 0 4 0 0 1 154 
9 0 0 1 0 0 1 154 
8 0 0 3 0 0 1 154 
3 0 0 3 0 0 1 155 
4 0 0 2 0 0 1 157 
8 0 0 1 0 0 1 157 
0 0 0 0 0 0 1 182 
0 0 0 0 0 0 4 159 161 162 165 
5 0 0 0 1 0 1 160 
6 0 0 0 2 0 3 168 167 163 
5 0 0 0 3 0 3 168 167 163 
6 0 0 0 1 0 2 167 163 
6 0 0 0 3 0 1 164 
3 0 0 0 3 0 1 166 
9 0 0 0 4 0 1 167 
7 0 0 0 4 0 1 169 
4 0 0 0 2 0 1 169 
3 0 0 0 2 0 1 169 
0 0 0 0 0 0 1 182 
0 0 0 0 0 0 2 171 172 
1 0 1 0 0 0 2 174 173 
9 0 4 0 0 0 2 176 174 
7 0 4 0 0 0 2 176 175 
7 0 1 0 0 0 1 175 
7 0 2 0 0 0 2 178 177 
2 0 4 0 0 0 2 178 177 
3 0 3 0 0 0 1 180 
2 0 1 0 0 0 1 179 
2 0 2 0 0 0 1 181 
5 0 3 0 0 0 1 181 
0 0 0 0 0 0 1 182 
0 0 0 0 0 0 0 
